20
100
10
0 2
0 7
0 10
0 14
0 15
0 16
0 18
1 4
1 6
1 7
1 8
1 12
1 13
1 16
1 17
1 18
2 3
2 5
2 7
2 9
2 10
2 12
2 13
2 14
2 15
2 19
3 5
3 6
3 7
3 8
3 15
3 16
3 17
3 18
3 19
4 5
4 6
4 7
4 9
4 10
4 12
4 14
4 17
4 19
5 6
5 7
5 9
5 10
5 11
5 12
5 13
5 14
5 15
5 19
6 7
6 11
6 13
6 14
6 16
6 17
6 18
6 19
7 10
7 12
7 16
7 18
8 9
8 10
8 11
8 12
8 14
8 19
9 10
9 11
9 12
9 13
9 14
9 18
10 12
10 17
10 18
11 12
11 14
11 17
11 18
12 14
12 15
12 16
12 18
12 19
13 14
13 15
13 16
13 19
14 15
15 16
15 18
16 17
17 19
18 19
4 7
1 9
6 18
2 12
3 13
11 14
0 19
5 8
15 17
10 16
